p cnf 15 72
-1 2 0
-2 3 0
-3 4 0
-4 5 0
-2 6 0
6 -3 7 0
3 2 -6 7 0
-2 -3 -6 7 0
7 -3 8 0
6 7 -4 8 0
4 3 -7 8 0
-3 -4 -7 8 0
-4 -5 -8 9 0
5 2 3 4 -6 9 0
5 3 4 -7 9 0
6 8 -4 9 0
6 7 8 -5 9 0
5 4 -8 9 0
2 1 -7 10 0
-1 -2 -3 -6 10 0
10 -2 11 0
-3 -4 -7 -8 -10 11 0
2 1 -7 -8 11 0
6 8 -4 -5 2 -7 3 -9 -10 11 0
4 3 8 7 -10 11 0
2 1 10 -8 11 0
2 1 10 11 -9 12 0
2 1 10 -8 -9 12 0
6 7 9 -5 2 3 -8 4 -11 12 0
5 4 9 8 -11 12 0
-4 -5 -8 -9 -11 12 0
2 1 -3 -4 -5 11 -8 12 0
6 11 -4 12 0
2 1 4 3 11 -8 -9 12 0
5 4 -8 -9 -11 12 0
-4 -5 9 8 -11 12 0
2 1 -7 11 -9 12 0
2 1 -7 -8 -9 12 0
3 2 -6 -7 -11 13 0
8 9 -4 -5 -6 -7 2 3 -10 -12 13 0
-2 -3 -4 -6 -7 -8 -10 13 0
-2 -3 -6 -7 -11 13 0
7 -3 -4 -5 -6 2 -8 -9 -11 13 0
3 4 2 7 8 6 -10 13 0
3 2 7 6 -11 13 0
2 1 5 4 10 12 -9 7 -11 8 -13 14 0
5 4 9 8 -11 -12 -13 14 0
3 2 7 6 -11 -12 14 0
3 2 7 6 13 -12 14 0
5 4 9 8 12 11 -13 14 0
6 7 9 -5 2 3 -8 4 12 11 -13 14 0
7 -3 -4 -5 -6 2 -8 -9 13 -12 14 0
-4 -5 -8 -9 -11 -12 -13 14 0
3 4 2 1 13 -7 -8 -9 14 0
5 4 -8 -9 -11 -12 -13 14 0
2 1 -4 -5 -7 12 -9 -10 -11 8 -13 14 0
3 2 -6 -7 13 -12 14 0
-4 -5 9 8 12 11 -13 14 0
-4 -5 9 8 -11 -12 -13 14 0
3 2 -6 -7 -11 -12 14 0
6 8 -4 -5 2 -7 3 -9 -10 -11 -14 15 0
4 3 -7 -8 -10 -11 -14 15 0
3 4 2 1 13 -7 -8 14 -10 -11 -12 15 0
8 9 -4 -5 -6 -7 2 3 -10 15 0
8 11 13 -4 15 0
13 14 -3 -4 -5 -6 15 0
-3 -4 -7 -8 -10 -11 -14 15 0
2 1 -3 -4 11 -8 -9 -10 7 -12 -14 15 0
2 1 4 3 11 -8 -9 -10 7 -12 -14 15 0
4 3 8 7 -10 -11 -14 15 0
4 3 8 7 11 10 -14 15 0
2 1 4 3 11 -8 12 -10 7 9 -14 15 0
